Maximize
	+ 3 x1 - 3 x2 - 1 x4 
Maximize
	- 3 x1 - 4 x2 + 6 x3 + 5 x4 
Maximize
	- 2 x1 + 2 x2 + 5 x4 
Maximize
	- 3 x3 - 4 x4 
Subject To
	+ 5 x1 + 5 x3 + 1 x4 <= 6
Bounds
	0 <= x1 <= 4
	0 <= x2 <= 4
	0 <= x3 <= 4
	0 <= x4 <= 4
Integers
	x1 x2 x3 x4 
End